NAME : XML100_1342_08
DIMENSION : 101
NB_CLUSTERS : 4
CLUSTERING_ALG : KMeans
CLUSTERING_PARAMS : k(3)
CLUSTERS
1 0
2 1 12 24 30 34 35 40 42 45 47 55 58 62 66 72 73 75 79 81 86 90 93 96 98
3 2 3 6 8 9 11 14 15 16 17 19 20 22 29 32 33 36 37 38 41 44 46 49 51 52 53 54 57 59 60 61 64 65 67 68 69 71 74 76 77 78 80 82 84 88 91 94 97 99 100
4 4 5 7 10 13 18 21 23 25 26 27 28 31 39 43 48 50 56 63 70 83 85 87 89 92 95
EOF